p edge 100 491
e 1 3
e 1 17
e 1 18
e 1 24
e 1 29
e 1 30
e 1 40
e 1 63
e 1 95
e 2 8
e 2 11
e 2 27
e 2 35
e 2 40
e 2 59
e 2 64
e 2 76
e 2 87
e 2 92
e 3 8
e 3 13
e 3 42
e 3 54
e 3 57
e 3 79
e 3 81
e 3 87
e 3 96
e 3 100
e 4 18
e 4 49
e 4 51
e 4 53
e 4 60
e 4 66
e 4 69
e 4 82
e 4 96
e 5 16
e 5 17
e 5 20
e 5 22
e 5 40
e 5 49
e 5 52
e 5 55
e 5 65
e 5 68
e 5 78
e 5 84
e 5 88
e 6 40
e 6 42
e 6 44
e 6 60
e 6 77
e 6 80
e 6 82
e 6 86
e 6 97
e 7 10
e 7 18
e 7 29
e 7 33
e 7 39
e 7 49
e 7 56
e 7 59
e 7 79
e 7 81
e 8 28
e 8 30
e 8 48
e 8 66
e 8 75
e 8 84
e 8 98
e 9 23
e 9 29
e 9 41
e 9 51
e 9 86
e 9 92
e 10 33
e 10 34
e 10 42
e 10 51
e 10 57
e 10 69
e 10 72
e 10 75
e 10 79
e 10 89
e 11 23
e 11 56
e 11 71
e 11 75
e 11 92
e 12 13
e 12 35
e 12 36
e 12 68
e 12 73
e 12 81
e 12 99
e 13 16
e 13 18
e 13 19
e 13 28
e 13 30
e 13 32
e 13 39
e 13 44
e 13 63
e 13 67
e 13 70
e 13 71
e 13 78
e 13 88
e 14 17
e 14 19
e 14 34
e 14 40
e 14 50
e 14 59
e 14 62
e 14 65
e 14 82
e 15 16
e 15 22
e 15 40
e 15 42
e 15 43
e 15 48
e 15 57
e 15 58
e 15 63
e 15 70
e 15 71
e 15 78
e 15 92
e 15 97
e 16 22
e 16 31
e 16 37
e 16 46
e 16 71
e 16 98
e 17 28
e 17 29
e 17 40
e 17 71
e 17 84
e 17 86
e 17 92
e 17 97
e 18 19
e 18 36
e 18 48
e 18 55
e 18 63
e 18 71
e 18 75
e 18 78
e 18 87
e 19 26
e 19 49
e 19 69
e 19 78
e 19 79
e 19 83
e 19 98
e 20 44
e 20 52
e 20 57
e 20 63
e 20 69
e 20 79
e 20 88
e 20 94
e 20 95
e 21 27
e 21 31
e 21 45
e 21 61
e 21 63
e 21 64
e 21 70
e 21 74
e 21 79
e 21 97
e 22 25
e 22 27
e 22 38
e 22 51
e 22 55
e 22 59
e 22 70
e 23 29
e 23 57
e 23 64
e 23 69
e 23 70
e 23 93
e 24 39
e 24 47
e 24 48
e 24 50
e 24 52
e 24 55
e 24 100
e 25 35
e 25 45
e 25 50
e 25 51
e 25 59
e 25 70
e 25 90
e 26 44
e 26 60
e 26 97
e 27 38
e 27 55
e 27 81
e 27 85
e 27 88
e 27 91
e 27 93
e 27 95
e 27 96
e 28 29
e 28 63
e 28 64
e 28 75
e 28 84
e 28 87
e 28 89
e 28 92
e 28 99
e 29 38
e 29 44
e 29 54
e 29 61
e 29 86
e 29 88
e 29 92
e 29 98
e 30 31
e 30 45
e 30 60
e 30 86
e 30 87
e 30 88
e 30 92
e 30 99
e 31 42
e 31 47
e 31 58
e 31 79
e 31 82
e 32 33
e 32 34
e 32 36
e 32 41
e 32 77
e 32 93
e 32 96
e 32 97
e 32 100
e 33 46
e 33 50
e 33 51
e 33 69
e 33 71
e 33 78
e 33 95
e 34 38
e 34 52
e 34 53
e 34 56
e 34 61
e 34 72
e 34 90
e 34 91
e 34 99
e 35 39
e 35 44
e 35 47
e 35 51
e 35 64
e 35 90
e 35 100
e 36 49
e 36 69
e 36 79
e 36 87
e 37 45
e 37 67
e 37 71
e 37 73
e 37 74
e 37 76
e 37 78
e 37 95
e 38 63
e 38 75
e 38 82
e 38 84
e 38 95
e 39 42
e 39 47
e 39 63
e 39 74
e 39 88
e 39 91
e 40 56
e 40 62
e 40 68
e 40 97
e 41 66
e 41 72
e 41 75
e 41 83
e 42 64
e 42 75
e 43 52
e 43 54
e 43 62
e 43 76
e 43 78
e 43 81
e 43 85
e 43 90
e 44 46
e 44 50
e 44 51
e 44 79
e 44 81
e 44 87
e 44 90
e 44 92
e 45 55
e 45 60
e 45 61
e 45 63
e 45 80
e 45 95
e 46 58
e 46 59
e 46 74
e 47 70
e 47 73
e 47 81
e 47 84
e 48 53
e 48 56
e 48 57
e 48 62
e 48 64
e 48 76
e 48 78
e 49 70
e 49 87
e 50 64
e 50 86
e 50 90
e 50 93
e 50 100
e 51 52
e 51 56
e 51 98
e 52 59
e 52 76
e 52 87
e 52 97
e 52 100
e 53 76
e 53 84
e 53 85
e 53 86
e 53 97
e 54 57
e 54 59
e 54 69
e 54 75
e 54 76
e 54 79
e 55 63
e 55 71
e 55 77
e 55 80
e 55 81
e 55 97
e 55 100
e 56 69
e 56 70
e 56 80
e 57 69
e 57 86
e 57 91
e 57 95
e 58 59
e 58 65
e 58 77
e 58 81
e 59 62
e 59 85
e 59 86
e 59 90
e 59 96
e 60 66
e 61 62
e 61 77
e 61 83
e 61 92
e 61 94
e 61 96
e 62 64
e 62 81
e 62 89
e 63 73
e 63 74
e 64 83
e 65 81
e 65 98
e 66 71
e 66 75
e 66 91
e 66 92
e 67 70
e 67 91
e 67 92
e 68 76
e 68 81
e 68 84
e 68 92
e 69 92
e 69 99
e 70 80
e 70 84
e 70 88
e 71 73
e 71 88
e 71 90
e 71 93
e 71 97
e 72 73
e 72 76
e 72 97
e 73 74
e 74 84
e 75 84
e 75 98
e 75 99
e 76 94
e 76 96
e 76 97
e 77 82
e 77 88
e 78 88
e 78 89
e 78 95
e 79 81
e 79 84
e 79 85
e 80 83
e 81 82
e 81 83
e 81 95
e 81 96
e 82 95
e 82 99
e 82 100
e 83 85
e 83 89
e 83 93
e 83 98
e 84 90
e 84 94
e 85 100
e 86 94
e 86 96
e 86 99
e 87 92
e 89 99
e 91 93
e 92 97
e 93 98
e 93 99
e 94 98
e 96 97
